Set parameter TokenServer to value "hpc-licenses.hpcc.usc.edu"
Set parameter TimeLimit to value 3600
Gurobi Optimizer version 9.5.1 build v9.5.1rc2 (linux64)
Thread count: 20 physical cores, 20 logical processors, using up to 20 threads
Optimize a model with 6007 rows, 4529 columns and 24534 nonzeros
Model fingerprint: 0x722f351b
Variable types: 4506 continuous, 23 integer (23 binary)
Coefficient statistics:
  Matrix range     [1e+00, 1e+00]
  Objective range  [1e-03, 1e+00]
  Bounds range     [1e+00, 1e+00]
  RHS range        [1e+00, 4e+01]
Found heuristic solution: objective 220.1171368
Presolve removed 1520 rows and 1515 columns
Presolve time: 0.07s
Presolved: 4487 rows, 3014 columns, 21975 nonzeros
Variable types: 2994 continuous, 20 integer (20 binary)

Root relaxation: objective 2.255399e+02, 1522 iterations, 0.07 seconds (0.06 work units)

    Nodes    |    Current Node    |     Objective Bounds      |     Work
 Expl Unexpl |  Obj  Depth IntInf | Incumbent    BestBd   Gap | It/Node Time

     0     0  225.53987    0    3  220.11714  225.53987  2.46%     -    0s
H    0     0                     225.3491082  225.53987  0.08%     -    0s

Cutting planes:
  Gomory: 3
  MIR: 4
  RLT: 1

Explored 1 nodes (1522 simplex iterations) in 0.29 seconds (0.15 work units)
Thread count was 20 (of 20 available processors)

Solution count 2: 225.349 220.117 

Optimal solution found (tolerance 1.00e-04)
Best objective 2.253491082253e+02, best bound 2.253491082253e+02, gap 0.0000%



#########node  1
V1.9
#########node  2
0.33333333333333326,0.6666666666666667
#########node  3
1.0,0.0


Total Solving Time 0.6869921684265137
obj value 225.34910822527752
Policy Regret train (Sum) 10.475852471410601
Best Treatment Found train (%) 51.800000000000004
treatment classification acc train (%) 45.0
Policy Regret test (Sum) 171.07608036179815
Best Treatment Found test (%) 53.010000000000005
treatment classification acc test (%) 50.2
